10,1,11,1,14,3,1,2,6,4,13,2,9,1,15,4,2,4,16,3,17,3,5,4,10,4,7,2,8,4,12,5,3,5,18,3,20,5,4,5;1,1,6,1,15,1,2,3,12,1,13,1,4,1,7,1,19,4,20,4,3,3,18,1,9,3,10,5,8,5,16,5,14,5,11,5;14,1,19,1,6,2,17,1,20,1,11,2,16,2,5,3,9,2,15,5,2,5,12,4,3,4,8,3,4,4,1,4,13,5,7,5,18,5;2,1,5,1,16,1,3,2,14,4,6,3,8,1,10,3,15,2,12,2,11,3,20,3,13,3,4,2,17,4,7,3,19,5,18,2,9,5,1,5;14,2,2,2,3,1,19,2,10,2,5,2,17,2,15,3,19,3,20,2,16,4,12,3,6,5,13,4,11,4,8,2,4,3,1,3,9,4,7,4,5,5,18,4,17,5;
